
Gurobi 9.1.2 (mac64, C++) logging started Mon Jan  3 03:19:50 2022


Gurobi 9.1.2 (mac64, C++) logging started Mon Jan  3 03:25:09 2022


Gurobi 9.1.2 (mac64, C++) logging started Mon Jan  3 03:27:18 2022


Gurobi 9.1.2 (mac64, C++) logging started Mon Jan  3 03:28:55 2022


Gurobi 9.1.2 (mac64, C++) logging started Mon Jan  3 03:37:49 2022


Gurobi 9.1.2 (mac64, C++) logging started Mon Jan  3 03:41:37 2022


Gurobi 9.1.2 (mac64, C++) logging started Mon Jan  3 04:40:33 2022


Gurobi 9.1.2 (mac64, C++) logging started Mon Jan  3 04:51:26 2022


Gurobi 9.1.2 (mac64, C++) logging started Mon Jan  3 04:58:36 2022


Gurobi 9.1.2 (mac64, C++) logging started Mon Jan  3 04:59:00 2022


Gurobi 9.1.2 (mac64, C++) logging started Mon Jan  3 05:02:29 2022


Gurobi 9.1.2 (mac64, C++) logging started Mon Jan  3 05:04:02 2022


Gurobi 9.1.2 (mac64, C++) logging started Mon Jan  3 05:05:51 2022


Gurobi 9.1.2 (mac64, C++) logging started Mon Jan  3 05:06:39 2022


Gurobi 9.1.2 (mac64, C++) logging started Mon Jan  3 05:09:02 2022


Gurobi 9.1.2 (mac64, C++) logging started Mon Jan  3 05:09:27 2022


Gurobi 9.1.2 (mac64, C++) logging started Mon Jan  3 05:23:07 2022


Gurobi 9.1.2 (mac64, C++) logging started Mon Jan  3 05:28:57 2022


Gurobi 9.1.2 (mac64, C++) logging started Mon Jan  3 05:45:16 2022


Gurobi 9.1.2 (mac64, C++) logging started Mon Jan  3 05:47:17 2022


Gurobi 9.1.2 (mac64, C++) logging started Mon Jan  3 05:50:08 2022


Gurobi 9.1.2 (mac64, C++) logging started Mon Jan  3 06:32:36 2022


Gurobi 9.1.2 (mac64, C++) logging started Mon Jan  3 06:48:35 2022


Gurobi 9.1.2 (mac64, C++) logging started Mon Jan  3 06:51:08 2022


Gurobi 9.1.2 (mac64, C++) logging started Mon Jan  3 07:30:53 2022


Gurobi 9.1.2 (mac64, C++) logging started Mon Jan  3 07:31:11 2022


Gurobi 9.1.2 (mac64, C++) logging started Mon Jan  3 07:33:23 2022


Gurobi 9.1.2 (mac64, C++) logging started Mon Jan  3 07:33:39 2022


Gurobi 9.1.2 (mac64, C++) logging started Mon Jan  3 07:34:00 2022


Gurobi 9.1.2 (mac64, C++) logging started Mon Jan  3 07:37:06 2022


Gurobi 9.1.2 (mac64, C++) logging started Mon Jan  3 07:38:34 2022


Gurobi 9.1.2 (mac64, C++) logging started Mon Jan  3 07:40:35 2022


Gurobi 9.1.2 (mac64, C++) logging started Mon Jan  3 09:24:38 2022


Gurobi 9.1.2 (mac64, C++) logging started Mon Jan  3 09:27:09 2022


Gurobi 9.1.2 (mac64, C++) logging started Mon Jan  3 09:33:56 2022


Gurobi 9.1.2 (mac64, C++) logging started Mon Jan  3 09:34:47 2022


Gurobi 9.1.2 (mac64, C++) logging started Mon Jan  3 09:38:41 2022


Gurobi 9.1.2 (mac64, C++) logging started Mon Jan  3 09:40:35 2022


Gurobi 9.1.2 (mac64, C++) logging started Mon Jan  3 09:47:40 2022


Gurobi 9.1.2 (mac64, C++) logging started Mon Jan  3 15:05:46 2022


Gurobi 9.1.2 (mac64, C++) logging started Mon Jan  3 15:20:14 2022


Gurobi 9.1.2 (mac64, C++) logging started Mon Jan  3 15:21:08 2022


Gurobi 9.1.2 (mac64, C++) logging started Sun Jan 16 22:41:30 2022

